NAME: .\SDVRP instances\p01\p01_1090
BEST_KNOWN: 0
COMMENT: 0
DIMENSION: 51
CAPACITY: 160
EDGE_WEIGHT_FORMAT: FUNCTION
EDGE_WEIGHT_TYPE: EXACT_2D
NODE_COORD_SECTION
1 0 0
2 7 12
3 19 9
4 22 24
5 -10 -14
6 10 -10
7 -9 7
8 -13 23
9 1 22
10 22 -7
11 21 -19
12 12 1
13 1 -8
14 -25 -15
15 -18 2
16 6 -24
17 22 1
18 -3 -17
19 -13 -7
20 -17 -27
21 27 18
22 32 2
23 12 17
24 -14 17
25 -22 12
26 -23 -2
27 -3 28
28 0 8
29 13 27
30 28 8
31 28 -13
32 7 29
33 8 6
34 16 -30
35 31 -7
36 32 23
37 33 29
38 2 -18
39 15 -5
40 29 -25
41 -25 -34
42 -20 -23
43 -9 -30
44 -25 24
45 0 -25
46 9 -30
47 2 -1
48 -5 -8
49 -5 15
50 18 -12
51 26 -3
DEMAND_SECTION
1 0
2 125
3 66
4 45
5 87
6 132
7 126
8 79
9 30
10 42
11 20
12 119
13 67
14 75
15 82
16 105
17 54
18 27
19 81
20 125
21 85
22 29
23 96
24 99
25 90
26 117
27 109
28 20
29 115
30 35
31 29
32 124
33 118
34 122
35 43
36 124
37 77
38 115
39 77
40 78
41 122
42 40
43 24
44 97
45 101
46 128
47 52
48 79
49 71
50 124
51 95
DEPOT_SECTION
1
-1
EOF
